p wcnf 131 262 263 
1 57 96 0 
1 -123 86 0 
1 70 -90 0 
1 -62 12 0 
1 47 111 0 
1 -28 76 0 
1 5 -78 0 
1 -32 103 0 
1 -53 -11 0 
1 -104 -71 0 
1 78 40 0 
1 -77 39 0 
1 4 58 0 
1 -103 43 0 
1 -122 -131 0 
1 40 -10 0 
1 15 -113 0 
1 -97 -79 0 
1 -38 -49 0 
1 62 5 0 
1 -72 -114 0 
1 30 -19 0 
1 -103 25 0 
1 -90 46 0 
1 20 -57 0 
1 -32 45 0 
1 -105 -106 0 
1 -122 44 0 
1 -17 65 0 
1 -124 18 0 
1 -46 44 0 
1 -82 -28 0 
1 40 36 0 
1 11 -129 0 
1 -41 117 0 
1 78 47 0 
1 -86 -128 0 
1 -106 119 0 
1 31 22 0 
1 -81 -74 0 
1 -56 -61 0 
1 -29 111 0 
1 11 109 0 
1 -49 18 0 
1 -92 121 0 
1 -129 -116 0 
1 15 121 0 
1 44 47 0 
1 -81 80 0 
1 42 23 0 
1 56 80 0 
1 13 50 0 
1 35 19 0 
1 122 1 0 
1 38 42 0 
1 -39 109 0 
1 80 101 0 
1 28 -15 0 
1 4 -6 0 
1 81 62 0 
1 4 32 0 
1 122 -43 0 
1 -130 115 0 
1 11 128 0 
1 67 131 0 
1 -56 -96 0 
1 76 -19 0 
1 35 -68 0 
1 -76 -111 0 
1 98 -23 0 
1 14 122 0 
1 -122 -39 0 
1 89 -66 0 
1 -127 -111 0 
1 75 7 0 
1 -113 72 0 
1 16 47 0 
1 34 129 0 
1 104 64 0 
1 95 -31 0 
1 118 21 0 
1 34 106 0 
1 -85 -7 0 
1 66 58 0 
1 -27 -22 0 
1 93 -12 0 
1 -118 -57 0 
1 -38 -28 0 
1 9 118 0 
1 46 131 0 
1 90 54 0 
1 31 118 0 
1 -14 22 0 
1 102 61 0 
1 -61 -117 0 
1 -104 75 0 
1 38 50 0 
1 -89 113 0 
1 -122 14 0 
1 -38 -80 0 
1 98 64 0 
1 38 -78 0 
1 68 37 0 
1 -81 -130 0 
1 15 46 0 
1 -79 -91 0 
1 8 109 0 
1 55 118 0 
1 7 13 0 
1 -82 -2 0 
1 110 61 0 
1 -25 -8 0 
1 107 87 0 
1 -43 5 0 
1 -73 -52 0 
1 112 10 0 
1 -81 48 0 
1 83 -35 0 
1 131 -127 0 
1 80 129 0 
1 84 -131 0 
1 -26 -44 0 
1 19 18 0 
1 -42 -32 0 
1 78 80 0 
1 15 -33 0 
1 98 85 0 
1 -101 95 0 
1 -20 -18 0 
1 37 -123 0 
1 -89 -7 0 
1 -98 80 0 
1 37 -40 0 
1 51 -11 0 
1 -36 124 0 
1 -43 130 0 
1 -111 103 0 
1 -106 104 0 
1 105 44 0 
1 125 49 0 
1 31 -101 0 
1 -91 -73 0 
1 40 -27 0 
1 48 -29 0 
1 -122 66 0 
1 16 -75 0 
1 -50 37 0 
1 41 87 0 
1 -18 -122 0 
1 112 54 0 
1 115 70 0 
1 113 31 0 
1 -49 20 0 
1 -105 -90 0 
1 -118 -4 0 
1 -64 -91 0 
1 77 -44 0 
1 -41 2 0 
1 -53 -121 0 
1 11 -101 0 
1 59 -47 0 
1 -68 93 0 
1 32 -24 0 
1 -63 -80 0 
1 41 90 0 
1 118 -25 0 
1 19 116 0 
1 9 -72 0 
1 22 -81 0 
1 -22 86 0 
1 94 68 0 
1 -8 111 0 
1 -119 -62 0 
1 -31 -26 0 
1 -73 -8 0 
1 -85 -49 0 
1 -21 -69 0 
1 -90 -126 0 
1 -29 -108 0 
1 -115 -52 0 
1 -120 81 0 
1 13 48 0 
1 -107 95 0 
1 -114 102 0 
1 -15 -27 0 
1 -96 64 0 
1 -106 3 0 
1 99 44 0 
1 1 36 0 
1 70 112 0 
1 -45 57 0 
1 57 -38 0 
1 34 -78 0 
1 -65 18 0 
1 -85 71 0 
1 -93 -95 0 
1 -76 17 0 
1 -116 -119 0 
1 93 -75 0 
1 98 5 0 
1 -79 77 0 
1 2 117 0 
1 -90 -21 0 
1 2 -72 0 
1 79 -67 0 
1 10 -57 0 
1 -38 90 0 
1 54 -67 0 
1 109 80 0 
1 -21 -59 0 
1 69 -53 0 
1 116 28 0 
1 -38 100 0 
1 32 8 0 
1 -86 -69 0 
1 -19 -113 0 
1 -40 98 0 
1 -77 -112 0 
1 54 -124 0 
1 -113 130 0 
1 -72 -14 0 
1 -16 89 0 
1 -114 80 0 
1 7 -108 0 
1 -111 -32 0 
1 -17 112 0 
1 31 130 0 
1 76 -18 0 
1 -42 -34 0 
1 -79 19 0 
1 34 26 0 
1 98 66 0 
1 -58 80 0 
1 -33 -109 0 
1 -118 70 0 
1 94 18 0 
1 101 -55 0 
1 20 -108 0 
1 -95 10 0 
1 -75 -35 0 
1 38 -114 0 
1 -100 -67 0 
1 55 15 0 
1 -29 -109 0 
1 -31 -13 0 
1 107 123 0 
1 -61 -54 0 
1 121 -4 0 
1 34 4 0 
1 75 -38 0 
1 -33 -71 0 
1 88 -122 0 
1 123 -99 0 
1 36 -59 0 
1 -55 35 0 
1 -78 7 0 
1 129 131 0 
1 123 73 0 
1 49 102 0 
1 -55 -66 0 
1 -27 80 0 
1 29 -1 0 
